 200 93 
 23 51 71 65 19 52 93 26 52 87 17 46 
 44 11 24 38 64 91 55 56 70 65 32 72 
 30 9 63 84 22 44 59 76 39 86 47 79 
 2 40 89 78 54 34 60 36 54 34 27 75 
 71 63 34 44 90 96 84 43 8 42 87 87 
 20 81 73 46 17 68 88 75 34 94 22 24 
 70 98 4 72 19 64 62 60 86 73 49 48 
 63 52 20 10 75 2 60 2 21 
 53 
 1 4 5 7 9 11 12 13 14 15 16 18 
 19 20 26 27 28 29 30 31 32 33 34 35 
 36 37 40 42 43 44 46 49 50 53 57 58 
 59 60 61 62 63 66 73 74 75 77 79 81 
 82 84 89 90 92 
 77 
 2 3 6 7 8 9 11 12 13 14 15 16 
 17 18 19 21 22 23 24 25 26 27 28 29 
 31 32 33 34 35 37 38 39 40 41 42 43 
 44 45 46 47 49 50 51 52 53 54 57 58 
 59 60 61 65 66 67 68 69 71 72 73 75 
 76 77 78 79 80 81 82 84 85 86 87 88 
 89 90 91 92 93 
 77 
 1 3 5 7 8 9 10 11 13 14 15 16 
 20 21 22 23 24 27 28 29 30 31 32 34 
 35 36 38 39 40 41 42 43 44 45 46 47 
 49 50 51 52 53 54 55 56 57 58 60 61 
 62 63 64 65 66 67 68 69 70 71 72 73 
 75 77 78 79 80 81 82 83 85 86 87 88 
 89 90 91 92 93 
 88 
 1 2 3 4 5 6 7 8 9 10 11 12 
 13 14 15 16 17 18 19 20 21 22 23 24 
 25 26 27 28 29 30 31 32 33 34 35 36 
 37 38 39 40 41 42 44 45 46 47 48 49 
 50 51 53 54 55 56 58 59 60 61 62 63 
 64 65 66 67 68 69 70 71 72 73 74 75 
 76 77 78 79 80 81 82 83 85 86 87 88 
 89 91 92 93 
 16 
 5 7 12 15 20 33 34 47 54 56 61 63 
 74 76 82 92 
 54 
 1 3 4 6 7 8 11 12 15 16 17 18 
 24 25 26 28 31 36 37 41 43 44 45 47 
 48 49 51 53 54 55 56 59 60 61 62 63 
 64 66 67 68 69 71 72 74 75 76 78 80 
 83 84 89 90 92 93 
 38 
 1 3 4 6 8 9 11 13 15 16 23 24 
 28 30 33 35 36 37 38 44 50 51 54 55 
 58 61 62 64 66 74 75 76 79 81 85 88 
 89 92 
 9 
 5 18 35 39 61 67 74 86 90 
 66 
 1 2 3 5 6 8 9 10 12 13 15 16 
 17 18 19 20 22 23 24 25 26 27 28 30 
 31 34 35 36 37 39 40 41 43 44 45 47 
 48 50 51 52 53 54 56 57 58 59 61 62 
 63 73 74 75 76 77 78 80 81 82 83 84 
 85 86 87 88 89 92 
 72 
 1 3 4 5 7 8 9 10 11 12 13 14 
 15 16 17 19 20 21 22 23 24 27 28 29 
 30 31 32 33 34 36 37 38 39 40 42 44 
 45 47 49 50 51 52 53 55 56 59 60 62 
 63 64 66 67 68 69 70 71 72 73 74 75 
 76 77 78 79 81 82 83 84 86 88 89 92 
 10 
 10 13 18 37 39 42 70 74 83 90 
 44 
 5 6 10 13 14 17 23 28 29 30 36 37 
 38 42 43 44 45 46 48 53 54 55 56 60 
 61 63 65 66 67 68 70 74 76 77 78 79 
 81 82 84 85 86 87 88 91 
 16 
 1 20 23 29 34 36 51 52 55 60 62 71 
 72 82 85 91 
 21 
 3 12 33 38 39 43 48 51 52 54 55 61 
 62 67 68 73 74 75 76 80 88 
 8 
 15 29 32 42 57 59 77 92 
 87 
 1 3 4 5 6 7 8 9 10 11 12 13 
 14 16 17 18 19 20 21 22 23 24 25 27 
 28 29 30 31 32 34 36 37 38 39 40 41 
 42 43 44 45 46 47 48 49 50 51 52 53 
 54 55 56 57 58 59 60 61 62 63 64 65 
 66 67 68 69 70 71 72 73 74 75 76 77 
 78 79 81 82 83 84 85 86 87 88 89 90 
 91 92 93 
 7 
 16 19 26 43 57 61 84 
 90 
 1 2 3 4 5 6 7 8 9 10 11 12 
 13 14 15 16 17 18 19 20 21 22 23 24 
 25 26 27 29 30 31 32 33 34 35 36 37 
 38 40 41 42 43 44 45 46 48 49 50 51 
 52 53 54 55 56 57 58 59 60 61 62 63 
 64 65 66 67 68 69 70 71 72 73 74 75 
 76 77 78 79 80 81 82 83 84 85 86 87 
 88 89 90 91 92 93 
 44 
 3 4 6 11 14 15 16 17 18 20 21 22 
 24 25 26 27 31 32 35 41 43 44 46 50 
 52 54 57 58 59 60 64 65 66 69 70 71 
 74 75 77 84 87 90 92 93 
 54 
 2 3 4 6 7 8 10 11 13 14 15 18 
 20 21 24 26 27 29 30 31 32 36 39 40 
 41 43 44 46 48 49 52 56 57 59 60 61 
 63 64 68 69 72 73 74 77 78 80 83 86 
 87 89 90 91 92 93 
 16 
 7 22 23 24 26 28 29 38 41 44 47 56 
 64 81 83 84 
 77 
 1 2 4 5 6 7 8 9 10 11 12 14 
 16 17 18 19 20 21 22 23 24 25 26 27 
 28 29 30 31 32 33 34 35 36 37 38 39 
 40 41 42 43 44 45 46 47 49 51 52 53 
 56 57 58 59 60 61 62 63 65 67 68 70 
 71 72 73 75 76 77 82 83 84 85 86 87 
 88 89 90 91 92 
 12 
 3 5 11 15 21 23 31 34 41 56 68 91 
 25 
 1 5 9 11 19 20 22 26 28 35 36 38 
 40 41 48 55 61 68 77 78 80 84 88 89 
 92 
 20 
 13 15 18 22 28 30 32 34 42 46 47 50 
 51 59 64 66 77 83 85 86 
 51 
 2 3 4 5 8 9 10 11 12 14 16 18 
 19 20 21 22 24 25 26 27 29 30 31 34 
 35 36 38 39 41 44 46 49 50 51 57 59 
 63 66 67 68 69 70 72 73 75 78 88 90 
 91 92 93 
 62 
 1 2 4 5 7 8 9 10 11 12 13 15 
 16 18 20 22 23 24 25 27 29 30 36 38 
 40 42 43 44 45 46 47 48 51 53 54 55 
 57 58 59 60 65 66 69 70 71 72 73 74 
 75 78 79 81 82 83 85 86 87 88 89 90 
 92 93 
 84 
 1 2 3 4 5 7 8 9 10 11 12 13 
 14 15 16 17 19 20 22 23 24 25 26 27 
 28 29 32 33 34 35 36 37 38 39 40 41 
 42 44 45 46 47 48 49 50 51 52 53 54 
 55 56 57 58 59 60 61 62 63 64 65 66 
 67 68 69 70 71 72 73 75 76 77 78 79 
 80 81 82 84 85 86 87 88 89 90 91 93 
 17 
 3 5 6 9 12 15 24 38 39 48 51 79 
 82 83 88 91 92 
 7 
 9 18 21 22 33 44 67 
 68 
 3 4 5 10 11 12 13 14 15 16 17 18 
 20 21 22 26 27 28 29 31 32 33 34 36 
 37 38 39 40 41 43 45 47 48 49 50 52 
 55 56 57 58 59 60 63 64 65 67 68 69 
 70 71 72 73 74 76 77 78 80 81 83 84 
 85 86 87 88 89 90 91 92 
 72 
 1 3 4 6 8 10 12 13 14 15 17 19 
 22 23 24 27 28 29 31 32 33 34 35 36 
 37 38 39 40 41 42 43 45 46 47 48 49 
 50 51 53 54 56 57 58 59 60 61 62 63 
 64 65 66 67 68 70 71 72 73 74 75 76 
 78 79 80 82 83 84 85 86 88 89 91 93 
 44 
 1 4 6 10 12 13 17 18 19 22 23 24 
 26 28 31 33 35 38 42 43 48 49 51 54 
 59 60 61 62 64 65 66 67 71 73 74 75 
 77 82 83 89 90 91 92 93 
 89 
 1 2 3 4 5 6 7 8 9 10 11 12 
 13 14 15 16 17 19 20 21 22 23 24 25 
 26 27 28 29 30 31 32 33 34 35 36 37 
 38 39 40 41 42 43 44 45 46 47 48 49 
 50 51 52 53 54 55 56 57 58 59 60 61 
 62 63 64 66 67 68 69 70 71 72 73 75 
 76 77 78 79 80 81 82 83 84 85 86 87 
 88 89 90 91 92 
 75 
 1 2 4 5 6 7 8 10 11 12 15 16 
 18 19 20 21 22 24 25 26 28 29 30 31 
 32 33 34 36 37 39 41 43 44 45 46 47 
 48 49 50 52 53 54 55 57 58 59 60 61 
 62 63 64 65 66 68 69 72 73 75 76 77 
 78 79 80 81 82 83 85 86 87 88 89 90 
 91 92 93 
 24 
 2 5 9 10 11 12 30 33 35 39 40 41 
 44 47 54 60 70 76 79 84 85 87 89 90 
 65 
 1 2 4 8 9 10 12 13 14 15 16 17 
 18 20 22 24 26 27 28 29 30 32 34 35 
 36 37 38 40 41 44 45 47 48 50 52 53 
 54 56 57 58 59 61 62 63 64 66 68 69 
 70 72 73 74 75 76 77 79 81 84 87 88 
 89 90 91 92 93 
 86 
 1 2 3 4 5 6 7 8 9 10 11 12 
 13 14 15 17 18 19 20 21 22 23 24 26 
 27 28 29 31 32 33 34 35 36 37 38 39 
 40 41 42 43 44 45 46 47 48 49 51 52 
 53 54 55 56 57 58 59 60 61 62 63 64 
 65 66 69 70 71 72 73 74 75 76 77 78 
 79 80 81 82 83 84 85 86 87 88 90 91 
 92 93 
 12 
 2 5 6 11 47 71 78 81 82 83 86 92 
 39 
 1 2 3 5 6 7 9 11 13 17 20 25 
 26 29 31 32 33 34 36 40 42 44 46 48 
 51 52 54 57 60 63 65 71 72 74 75 76 
 78 83 87 
 48 
 2 3 4 5 10 12 14 15 16 19 20 21 
 22 23 28 30 31 32 33 37 39 40 41 42 
 43 45 46 47 49 51 57 58 64 67 68 71 
 72 73 75 78 79 81 82 83 86 88 89 90 
 19 
 6 13 15 20 27 36 43 46 47 48 53 56 
 58 60 64 65 66 68 82 
 65 
 1 2 3 4 5 7 9 11 12 13 16 17 
 18 19 20 21 22 24 26 27 28 29 32 34 
 35 37 38 39 40 42 43 44 46 47 50 51 
 53 54 55 56 58 59 60 61 62 63 66 67 
 68 69 70 73 74 75 77 78 79 82 84 86 
 89 90 91 92 93 
 30 
 4 5 6 8 9 10 14 17 18 21 27 30 
 34 37 38 41 46 50 51 55 56 63 66 67 
 73 74 77 91 92 93 
 85 
 1 2 3 4 5 7 8 9 10 13 14 15 
 16 17 18 20 21 22 23 24 25 26 27 28 
 29 30 31 32 33 34 35 36 37 38 39 40 
 41 42 43 44 46 47 48 49 50 51 52 53 
 54 55 56 57 59 60 61 62 63 65 67 68 
 69 70 71 72 73 74 75 76 77 78 79 80 
 81 82 83 84 85 86 87 88 89 90 91 92 
 93 
 30 
 1 3 4 6 11 12 13 17 18 21 28 29 
 40 42 45 47 50 51 53 62 68 69 70 73 
 81 84 85 86 89 91 
 79 
 3 4 5 6 8 9 10 12 13 14 16 17 
 18 19 20 21 23 25 26 27 28 29 30 31 
 32 34 35 36 38 39 40 41 42 43 44 45 
 46 47 48 49 51 52 53 54 55 56 57 58 
 59 60 61 62 63 64 65 67 68 69 70 71 
 72 73 75 76 77 78 79 82 83 84 85 86 
 87 88 89 90 91 92 93 
 25 
 1 3 9 13 16 19 24 26 27 29 33 37 
 38 47 48 52 55 60 66 70 74 78 84 85 
 86 
 28 
 3 5 7 17 23 24 25 26 30 37 42 48 
 50 55 57 58 59 62 66 67 68 70 71 72 
 73 75 85 90 
 45 
 4 6 10 11 14 17 18 20 21 22 27 28 
 29 31 32 33 35 36 37 39 40 41 43 47 
 48 49 52 55 56 58 59 60 63 65 69 70 
 73 75 77 78 80 82 87 89 92 
 71 
 2 5 6 7 8 9 10 11 12 13 16 17 
 18 19 20 21 22 23 24 25 26 27 28 30 
 31 32 34 35 36 37 38 39 40 44 45 46 
 49 50 51 52 53 55 57 58 59 61 64 65 
 66 67 68 69 70 71 72 74 75 76 77 78 
 79 80 81 82 85 86 88 89 91 92 93 
 60 
 2 3 4 7 8 9 10 11 14 15 16 17 
 18 19 20 22 24 25 26 28 30 31 33 34 
 35 36 37 38 41 42 43 44 45 46 47 49 
 50 51 52 54 56 57 58 61 62 66 68 73 
 75 77 78 79 80 81 82 85 86 90 91 92 
 19 
 4 14 23 25 29 40 51 53 57 62 63 64 
 66 68 75 80 84 88 89 
 87 
 1 2 3 4 5 6 7 8 9 10 11 12 
 13 14 15 16 17 18 19 20 21 22 23 24 
 25 26 27 28 29 31 33 34 35 36 37 38 
 40 41 43 44 45 46 47 48 49 50 51 52 
 53 54 55 56 57 58 59 60 61 62 63 64 
 65 66 67 68 69 70 71 72 74 75 76 77 
 78 79 80 81 82 83 84 85 86 87 89 90 
 91 92 93 
 75 
 1 2 4 6 8 9 10 11 13 14 15 16 
 17 18 19 20 21 22 23 24 25 26 28 29 
 30 31 32 34 35 36 38 40 41 42 43 44 
 45 46 47 48 49 50 51 52 53 54 55 56 
 58 60 61 62 63 64 65 66 68 70 71 72 
 73 74 75 77 78 79 81 82 83 84 85 86 
 87 90 92 
 47 
 3 4 5 7 9 10 12 17 20 22 23 26 
 28 29 37 40 41 45 46 48 49 50 51 52 
 53 56 58 61 62 63 66 69 71 72 73 74 
 75 76 77 78 83 84 85 86 87 91 93 
 26 
 2 3 4 6 9 10 12 13 14 22 37 41 
 43 47 60 62 63 70 71 72 73 75 76 77 
 84 91 
 67 
 1 2 3 4 5 6 8 9 12 13 14 17 
 20 22 23 25 26 27 28 29 30 32 33 34 
 37 39 43 45 46 47 48 50 51 52 53 54 
 55 56 57 58 61 62 63 64 65 66 67 69 
 70 72 73 74 75 76 77 79 80 81 82 84 
 85 86 87 88 89 90 91 
 17 
 2 4 13 16 34 37 43 46 50 73 74 76 
 77 81 83 86 92 
 53 
 2 3 6 7 8 9 10 11 14 18 20 23 
 24 25 26 27 29 31 33 34 35 41 42 45 
 46 49 50 51 54 55 58 62 64 66 67 68 
 69 71 72 74 75 77 78 79 81 82 83 84 
 85 86 88 90 92 
 6 
 1 33 39 53 54 87 
 74 
 2 3 4 5 6 7 9 10 11 15 16 17 
 18 19 20 21 23 25 26 28 29 30 32 33 
 34 35 36 37 38 39 40 41 42 43 44 45 
 46 47 48 49 50 53 54 57 58 59 60 61 
 62 64 65 66 67 68 69 70 71 72 73 75 
 76 77 78 80 83 84 85 87 88 89 90 91 
 92 93 
 42 
 1 2 4 14 16 17 18 19 21 22 24 26 
 28 30 34 35 38 39 43 45 46 47 48 51 
 52 55 56 58 60 61 62 63 64 69 70 72 
 74 77 80 85 86 91 
 12 
 3 14 20 24 37 40 42 51 63 75 77 84 
 61 
 1 2 3 5 7 8 10 11 13 16 17 18 
 21 23 24 25 26 27 29 30 31 33 34 35 
 36 37 38 40 41 42 43 44 46 48 49 50 
 53 58 59 61 64 66 67 68 69 70 71 73 
 75 76 77 78 79 80 81 83 86 88 89 92 
 93 
 32 
 2 3 5 6 8 10 11 16 18 21 22 34 
 35 36 45 48 51 53 63 64 65 66 68 75 
 78 80 84 86 89 90 91 92 
 42 
 2 3 4 5 11 12 13 15 23 24 35 36 
 38 43 46 48 49 52 55 56 58 60 61 62 
 63 64 67 68 69 70 71 76 77 78 82 83 
 87 88 89 91 92 93 
 44 
 2 6 7 9 11 15 16 19 20 21 22 23 
 25 29 31 34 35 39 40 42 43 46 47 48 
 52 54 56 63 65 67 68 69 71 72 73 74 
 76 77 80 82 84 85 87 92 
 79 
 2 3 4 6 7 9 10 12 13 14 15 16 
 17 18 19 20 22 23 24 25 26 27 29 30 
 31 32 33 34 35 36 37 38 39 40 41 42 
 43 44 45 47 48 49 50 52 53 55 56 57 
 58 59 60 61 62 63 64 66 67 69 70 71 
 72 73 75 76 77 78 79 80 81 82 83 84 
 86 88 89 90 91 92 93 
 45 
 1 4 10 11 13 15 16 18 19 20 22 24 
 25 26 27 34 35 39 41 42 49 51 54 55 
 56 57 58 59 61 63 64 66 68 71 75 79 
 80 81 83 84 85 86 88 89 92 
 46 
 2 3 5 8 11 12 14 17 21 23 24 25 
 27 28 29 31 33 35 36 38 42 43 44 45 
 46 51 54 56 58 62 63 64 65 67 69 73 
 75 78 79 80 81 84 85 88 92 93 
 67 
 2 3 4 6 8 9 11 12 13 14 15 16 
 17 18 19 20 22 23 24 25 26 29 30 32 
 33 34 35 37 38 40 41 42 43 44 45 49 
 50 51 52 54 55 57 58 59 62 66 67 69 
 70 71 72 73 74 75 76 77 78 79 80 84 
 85 87 88 89 90 91 92 
 27 
 5 7 8 10 13 15 16 22 25 30 33 36 
 40 52 55 57 58 62 64 66 69 75 76 82 
 83 87 91 
 83 
 1 2 3 4 6 7 8 9 10 11 13 14 
 15 16 17 18 20 21 22 23 24 25 26 27 
 28 29 30 32 33 34 35 36 38 39 40 41 
 42 43 44 45 46 47 48 51 52 53 54 55 
 56 57 58 59 61 62 63 65 66 67 68 69 
 71 72 73 74 75 76 77 78 79 80 81 82 
 83 84 85 86 87 88 89 90 91 92 93 
 92 
 1 2 3 4 5 6 7 8 9 10 11 12 
 13 14 15 16 17 18 19 20 21 22 23 24 
 25 26 27 28 29 30 31 32 33 34 35 36 
 37 38 39 40 41 42 43 44 45 46 47 48 
 49 50 51 52 53 54 55 56 57 58 59 60 
 61 62 63 64 65 66 67 68 69 70 71 72 
 73 74 75 76 77 78 79 80 81 82 83 84 
 85 87 88 89 90 91 92 93 
 16 
 3 7 11 15 26 30 31 44 50 58 65 68 
 73 83 86 92 
 62 
 3 4 5 6 7 9 10 11 12 14 15 16 
 18 19 20 22 27 30 31 33 36 38 41 42 
 44 45 47 48 49 50 51 52 53 54 57 58 
 60 62 63 64 65 66 67 68 70 71 73 74 
 75 76 77 78 79 82 83 85 86 87 88 89 
 92 93 
 57 
 3 6 7 8 9 10 11 12 13 14 16 19 
 20 21 23 24 25 26 27 28 30 31 34 36 
 37 42 43 44 45 46 47 49 50 51 55 57 
 58 60 61 62 64 65 66 72 74 78 80 81 
 82 83 84 85 87 88 89 91 93 
 82 
 1 2 3 6 7 8 9 10 11 12 13 14 
 16 17 18 19 20 21 22 23 24 25 26 27 
 28 29 30 31 32 33 34 35 36 37 38 39 
 40 41 42 43 44 45 46 47 48 49 50 51 
 52 53 54 55 56 57 58 59 61 62 64 65 
 66 67 68 69 70 72 75 76 77 80 81 82 
 83 84 85 86 87 88 89 90 92 93 
 71 
 1 2 4 5 6 7 8 10 11 12 16 18 
 19 20 21 22 23 25 26 27 28 29 31 32 
 33 34 35 37 39 40 41 43 44 45 48 49 
 51 52 53 54 57 58 59 61 62 63 64 65 
 66 67 68 69 70 71 72 73 74 75 77 78 
 80 81 83 84 85 86 88 89 90 91 92 
 90 
 1 2 3 4 5 6 7 8 10 11 12 13 
 14 15 16 17 18 19 20 21 22 23 24 25 
 26 27 28 29 30 31 32 33 34 35 36 37 
 38 39 40 41 42 43 44 45 46 47 48 49 
 50 51 52 53 55 56 57 58 59 60 61 62 
 64 65 66 67 68 69 70 71 72 73 74 75 
 76 77 78 79 80 81 82 83 84 85 86 87 
 88 89 90 91 92 93 
 48 
 1 3 4 7 8 10 11 20 25 26 27 28 
 29 30 32 33 38 40 41 42 43 44 46 47 
 48 50 51 55 56 58 59 61 62 64 68 69 
 70 71 72 74 75 76 84 85 87 88 90 91 
 52 
 3 4 5 7 10 11 12 13 15 16 17 19 
 20 23 26 27 28 29 30 34 35 36 37 39 
 40 41 45 46 47 48 49 50 53 55 59 60 
 62 63 64 68 69 72 77 80 84 85 86 87 
 88 90 92 93 
 56 
 2 7 8 12 14 15 20 21 22 23 27 28 
 29 33 34 35 36 37 39 41 42 43 44 45 
 51 52 53 54 58 59 60 61 63 64 65 67 
 68 70 71 72 74 76 77 78 79 80 81 84 
 85 86 87 88 89 91 92 93 
 80 
 1 2 3 4 5 6 7 8 9 10 11 12 
 16 17 18 19 20 21 22 23 24 25 26 27 
 28 30 31 32 34 36 37 38 40 41 42 43 
 44 45 46 47 48 49 50 51 52 54 55 56 
 57 58 59 60 61 62 63 64 65 66 67 68 
 69 70 71 72 74 75 76 77 79 81 82 84 
 85 86 88 89 90 91 92 93 
 47 
 1 4 9 10 13 15 16 17 21 24 27 28 
 29 30 32 36 37 39 43 44 45 46 49 50 
 51 54 56 58 61 62 66 67 71 72 73 75 
 76 77 82 83 84 87 88 90 91 92 93 
 91 
 1 2 3 4 5 6 7 8 9 10 11 12 
 13 14 15 16 17 18 19 20 21 22 23 24 
 25 26 27 28 29 30 31 33 34 35 36 37 
 38 39 40 41 42 43 44 45 46 47 48 49 
 50 51 52 53 54 55 56 57 58 59 60 61 
 62 64 65 66 67 68 69 70 71 72 73 74 
 75 76 77 78 79 80 81 82 83 84 85 86 
 87 88 89 90 91 92 93 
 15 
 7 8 16 17 18 19 34 43 44 49 66 68 
 70 79 87 
 30 
 2 7 12 16 18 21 25 26 28 29 31 32 
 33 34 35 41 43 45 49 53 54 59 68 75 
 79 84 86 88 91 93 
 56 
 1 3 4 6 7 10 11 12 13 14 16 17 
 20 21 25 28 29 30 32 35 36 37 38 40 
 41 44 45 46 48 49 54 59 60 61 62 64 
 65 67 68 69 70 71 74 75 76 77 78 79 
 81 83 84 85 86 88 90 92 
 3 
 25 43 75 
 81 
 1 2 3 5 6 7 8 9 10 11 12 13 
 14 15 16 18 21 22 23 25 26 27 28 29 
 30 31 32 33 34 35 36 37 38 39 40 41 
 42 45 46 47 48 49 50 51 52 53 54 55 
 56 57 58 59 60 61 62 63 64 65 66 67 
 68 69 70 71 72 73 74 75 76 78 80 81 
 82 83 85 86 87 88 89 90 91 
 32 
 1 5 6 13 16 18 19 23 24 27 39 41 
 45 47 50 53 55 57 58 59 61 64 65 67 
 70 77 80 82 83 84 92 93 
 4 
 14 34 58 79 
 81 
 1 2 4 6 8 9 10 11 12 13 14 15 
 16 17 20 21 22 23 24 25 26 27 29 31 
 32 33 35 36 38 39 40 41 42 43 44 45 
 46 47 48 49 50 51 52 53 54 55 56 57 
 58 59 60 61 62 63 65 66 67 68 69 70 
 71 72 73 74 75 76 77 79 80 81 82 83 
 84 85 86 87 88 89 90 91 93 
 25 
 1 5 15 16 18 21 27 28 30 34 41 49 
 52 53 56 63 65 66 68 77 79 87 89 92 
 93 
 21 
 1 11 13 15 17 20 21 28 38 46 48 51 
 53 54 57 70 76 82 84 87 89 
 90 
 1 2 3 4 5 6 8 9 10 11 12 13 
 14 15 16 17 18 19 20 21 22 23 24 25 
 26 27 28 29 30 31 32 33 34 35 36 37 
 38 39 40 41 42 43 44 45 46 47 48 50 
 51 52 53 54 55 56 57 58 59 60 61 62 
 63 64 65 66 67 68 69 70 72 73 74 75 
 76 77 78 79 80 81 82 83 84 85 86 87 
 88 89 90 91 92 93 
 57 
 2 4 5 6 8 9 10 15 17 19 21 22 
 25 26 28 32 33 34 35 36 37 39 40 42 
 43 46 48 50 51 53 54 55 56 57 58 59 
 61 62 65 69 70 72 73 74 75 77 79 80 
 81 82 84 86 87 89 90 92 93 
 31 
 1 4 5 6 9 10 12 16 17 21 24 27 
 28 29 31 37 39 40 43 48 53 54 55 56 
 65 66 67 68 76 78 88 
 32 
 5 10 11 13 18 20 23 24 25 27 39 40 
 41 43 48 49 50 51 57 58 59 60 62 64 
 67 69 71 79 81 82 85 93 
 55 
 1 4 5 6 7 8 9 10 11 12 13 15 
 16 18 20 21 22 23 26 27 28 30 36 37 
 38 41 43 45 47 48 49 50 51 52 53 54 
 57 58 61 63 66 67 68 69 70 75 77 79 
 81 82 83 85 86 89 93 
 61 
 1 3 4 5 7 8 13 14 15 17 18 19 
 21 23 24 25 26 27 30 31 32 34 35 36 
 39 40 41 42 43 45 48 50 51 53 54 56 
 57 59 60 61 63 64 67 68 69 70 71 72 
 74 76 77 78 80 81 84 86 87 88 89 90 
 93 
 85 
 1 2 3 4 5 6 9 10 12 13 14 15 
 16 17 18 19 20 21 22 23 24 25 26 27 
 28 29 30 31 32 33 34 35 36 37 39 40 
 41 42 43 44 45 46 47 48 49 50 51 52 
 53 54 55 56 57 60 61 62 64 65 66 67 
 68 69 70 71 72 73 74 75 76 77 78 79 
 80 81 82 83 85 86 87 88 89 90 91 92 
 93 
 36 
 1 6 8 12 13 14 15 24 25 27 28 29 
 34 36 37 47 51 53 54 56 57 59 62 63 
 64 66 69 71 73 76 77 78 79 90 91 93 
 53 
 1 3 5 6 10 12 13 14 15 16 18 20 
 21 24 26 33 34 37 40 42 44 46 47 49 
 52 53 54 55 58 59 63 64 67 68 69 70 
 73 74 75 76 77 78 80 82 84 85 86 87 
 88 89 90 91 92 
 66 
 1 2 3 4 6 7 8 9 10 11 12 13 
 15 17 18 19 21 22 23 26 28 29 31 33 
 35 36 37 39 40 44 46 47 48 49 50 51 
 54 57 58 59 61 62 63 66 67 68 69 70 
 71 73 75 76 77 78 79 81 82 83 84 85 
 86 87 88 89 91 92 
 91 
 1 2 3 4 5 6 7 8 9 10 11 12 
 13 14 15 16 17 18 19 20 21 22 23 24 
 25 26 27 28 29 30 31 32 33 34 35 36 
 37 38 39 40 41 42 43 44 45 46 47 48 
 49 50 51 52 53 54 55 56 58 59 60 61 
 62 63 64 65 66 67 68 69 70 71 72 73 
 74 75 76 77 78 79 80 81 83 84 85 86 
 87 88 89 90 91 92 93 
 19 
 2 3 9 11 13 14 32 33 37 38 41 42 
 44 49 50 58 71 85 86 
 91 
 1 2 4 5 6 7 8 9 10 11 12 13 
 14 15 16 17 18 19 20 21 22 23 24 25 
 26 27 28 29 30 31 32 33 34 35 36 37 
 38 39 40 41 42 43 44 45 46 48 49 50 
 51 52 53 54 55 56 57 58 59 60 61 62 
 63 64 65 66 67 68 69 70 71 72 73 74 
 75 76 77 78 79 80 81 82 83 84 85 86 
 87 88 89 90 91 92 93 
 33 
 1 2 5 6 10 11 15 17 21 25 27 28 
 30 31 32 33 34 36 43 46 49 50 51 53 
 58 59 61 62 72 77 82 86 89 
 70 
 1 2 5 7 8 9 10 12 13 14 15 17 
 18 19 20 23 24 27 28 29 30 31 32 34 
 35 36 37 39 40 41 42 44 45 46 51 52 
 53 54 55 56 57 58 59 60 61 63 64 65 
 66 67 68 69 71 73 75 77 78 81 82 83 
 84 85 86 87 88 89 90 91 92 93 
 36 
 4 7 8 10 13 15 17 19 20 21 26 30 
 31 32 33 42 47 53 57 59 60 62 64 65 
 66 67 69 70 72 73 74 77 78 80 89 90 
 7 
 5 18 59 63 76 78 84 
 69 
 2 3 5 6 7 9 10 11 12 13 14 15 
 16 17 18 19 20 21 23 24 25 26 27 29 
 30 31 32 33 35 37 38 39 41 42 44 45 
 46 47 48 49 50 52 53 54 56 58 60 61 
 62 63 64 65 67 68 70 72 73 75 77 78 
 80 82 83 85 88 89 90 91 93 
 29 
 4 5 9 10 11 14 16 18 25 28 32 38 
 40 41 44 46 47 48 49 51 53 54 59 65 
 76 84 86 92 93 
 36 
 3 16 17 19 24 26 29 30 31 33 34 36 
 39 40 44 45 47 48 50 53 59 63 64 67 
 69 71 72 73 76 77 79 82 88 89 91 93 
 5 
 5 13 27 74 89 
 51 
 1 2 3 4 6 8 10 11 12 15 18 19 
 22 23 24 25 28 31 35 37 38 43 45 47 
 48 49 51 52 53 54 56 58 60 62 64 65 
 66 68 71 75 79 82 83 85 86 88 89 90 
 91 92 93 
 61 
 1 2 3 4 5 6 7 8 9 10 15 18 
 19 20 21 22 24 26 27 29 30 31 32 34 
 35 36 37 39 40 42 43 44 45 47 48 49 
 52 53 54 55 56 58 62 64 65 66 67 68 
 70 73 74 75 76 77 78 79 83 86 88 89 
 90 
 37 
 1 2 3 4 10 12 13 16 18 22 23 25 
 28 29 31 33 34 39 40 41 42 45 49 52 
 53 55 56 61 65 71 72 77 81 84 89 91 
 92 
 87 
 1 2 3 4 5 7 8 9 10 11 12 14 
 15 16 17 18 19 20 21 22 23 24 25 26 
 27 28 29 30 31 32 34 35 36 37 38 39 
 40 41 42 44 46 47 48 49 50 51 52 53 
 54 55 56 57 58 59 60 61 62 63 64 65 
 66 67 68 69 70 71 72 73 74 75 76 77 
 78 79 80 81 82 83 84 85 86 87 89 90 
 91 92 93 
 26 
 1 2 3 6 11 14 15 18 19 26 27 37 
 38 41 43 47 49 54 56 57 61 63 69 71 
 87 88 
 88 
 1 2 3 4 5 6 7 9 10 11 12 13 
 14 15 16 17 18 19 20 21 22 23 24 25 
 26 27 28 29 30 31 32 33 34 36 37 39 
 40 41 42 43 44 45 46 47 48 49 50 51 
 52 53 54 55 56 57 58 59 60 61 62 63 
 64 65 66 67 68 69 70 71 72 73 74 75 
 76 77 78 79 80 81 82 83 84 85 86 87 
 88 89 90 91 
 23 
 1 5 7 15 20 21 23 24 29 30 42 43 
 49 57 64 68 72 73 79 80 85 88 92 
 19 
 6 16 18 21 24 27 33 34 37 38 43 44 
 62 68 71 76 78 87 91 
 36 
 2 3 5 6 7 9 10 11 13 16 18 21 
 22 23 26 30 34 35 36 38 41 48 49 51 
 53 55 58 60 62 63 68 71 73 75 77 84 
 8 
 3 14 20 35 36 78 87 92 
 50 
 1 2 3 4 6 8 9 10 11 13 14 16 
 17 18 20 25 28 29 31 33 35 36 39 41 
 43 45 48 49 50 52 54 57 59 66 69 71 
 72 73 75 78 79 80 82 83 84 85 86 87 
 90 91 
 92 
 1 2 3 4 5 6 7 8 9 10 11 12 
 13 14 15 16 17 18 19 20 21 22 23 24 
 25 26 27 28 29 30 31 32 33 34 35 36 
 37 38 39 40 41 42 43 44 45 46 47 48 
 49 50 51 52 53 54 56 57 58 59 60 61 
 62 63 64 65 66 67 68 69 70 71 72 73 
 74 75 76 77 78 79 80 81 82 83 84 85 
 86 87 88 89 90 91 92 93 
 93 
 1 2 3 4 5 6 7 8 9 10 11 12 
 13 14 15 16 17 18 19 20 21 22 23 24 
 25 26 27 28 29 30 31 32 33 34 35 36 
 37 38 39 40 41 42 43 44 45 46 47 48 
 49 50 51 52 53 54 55 56 57 58 59 60 
 61 62 63 64 65 66 67 68 69 70 71 72 
 73 74 75 76 77 78 79 80 81 82 83 84 
 85 86 87 88 89 90 91 92 93 
 42 
 1 2 4 7 9 11 13 17 21 22 23 27 
 28 29 33 37 38 40 41 42 46 47 52 56 
 57 58 62 64 66 67 68 70 73 75 76 81 
 84 86 88 90 91 93 
 12 
 2 4 7 11 18 27 29 30 47 48 70 83 
 42 
 1 4 6 9 10 11 15 24 25 26 29 30 
 32 39 40 41 43 49 53 56 57 58 59 61 
 63 64 65 66 67 71 74 75 76 78 79 80 
 81 82 83 85 87 92 
 82 
 2 3 4 5 6 7 8 9 10 11 12 13 
 15 17 18 19 20 21 23 24 25 26 27 28 
 29 30 31 32 33 34 36 37 38 40 41 42 
 43 44 45 46 47 48 49 50 51 52 53 54 
 56 58 59 60 61 62 63 65 66 67 68 69 
 70 71 73 74 75 76 77 78 79 80 81 82 
 83 84 85 86 88 89 90 91 92 93 
 89 
 1 2 3 4 5 6 7 8 9 10 11 12 
 13 14 15 16 17 18 19 20 21 22 23 24 
 25 26 27 28 29 30 31 32 33 34 35 36 
 37 38 40 41 42 43 44 45 46 48 49 50 
 51 52 53 54 55 56 57 58 59 60 61 62 
 63 64 65 66 67 68 70 71 72 73 75 76 
 77 78 79 80 81 82 83 84 85 86 87 88 
 89 90 91 92 93 
 87 
 1 2 3 4 5 6 7 8 9 10 11 12 
 14 15 16 17 18 19 21 22 23 25 26 28 
 30 31 33 34 35 36 37 38 39 40 41 42 
 43 44 45 46 47 48 49 50 51 52 53 54 
 55 56 57 58 59 60 61 62 63 64 65 66 
 67 68 69 70 71 72 73 74 75 76 77 78 
 79 80 81 82 83 84 85 86 87 88 89 90 
 91 92 93 
 72 
 1 2 3 5 6 7 8 10 11 12 13 14 
 15 16 17 18 19 21 23 24 25 26 29 31 
 32 33 34 35 38 39 41 42 43 44 45 47 
 49 50 51 53 55 56 57 58 59 60 61 62 
 63 64 66 67 68 70 72 73 75 76 77 78 
 79 80 81 82 83 86 87 89 90 91 92 93 
 23 
 14 21 24 26 29 32 34 36 39 41 45 46 
 56 57 58 71 75 76 77 81 83 87 91 
 28 
 1 2 11 14 19 23 26 28 29 30 34 35 
 39 43 44 47 53 57 58 65 66 68 70 71 
 77 83 87 92 
 77 
 1 2 3 5 7 8 9 10 11 12 13 15 
 16 17 18 20 21 22 24 25 26 28 30 32 
 34 36 37 38 39 40 41 42 43 45 46 47 
 48 50 51 52 53 54 55 56 57 59 60 61 
 62 63 64 65 66 67 68 70 71 72 73 74 
 75 76 77 78 79 80 81 82 83 84 85 86 
 87 88 89 91 93 
 9 
 4 5 22 48 56 62 71 73 85 
 24 
 7 13 15 19 22 24 30 31 35 38 39 44 
 45 54 59 63 67 72 73 74 80 82 85 91 
 71 
 1 2 3 4 5 6 7 9 10 11 12 15 
 17 19 21 22 23 24 25 27 28 34 36 37 
 38 39 40 42 43 44 45 46 47 48 49 50 
 51 52 54 55 56 57 58 59 60 61 62 64 
 65 66 67 68 69 72 73 74 75 76 78 79 
 81 83 84 85 86 87 88 89 91 92 93 
 46 
 4 5 6 8 9 11 13 14 17 19 20 21 
 23 25 30 33 35 44 45 46 50 51 53 54 
 55 57 58 60 63 64 65 67 68 69 70 78 
 79 80 81 82 83 84 87 89 92 93 
 40 
 1 3 10 13 15 17 18 19 20 21 22 26 
 29 32 34 38 39 41 43 49 50 53 54 55 
 58 59 63 67 68 69 70 75 76 78 79 83 
 85 89 91 92 
 69 
 1 2 4 5 7 9 10 11 12 13 14 16 
 17 19 21 22 23 24 25 26 27 28 29 30 
 31 35 36 37 38 39 41 42 43 44 45 47 
 48 49 51 54 55 56 58 60 62 63 64 66 
 67 68 69 70 71 72 73 74 75 77 78 80 
 81 83 84 85 86 87 89 90 92 
 75 
 1 2 3 4 6 8 9 10 11 12 13 14 
 15 16 17 18 19 20 21 23 25 26 27 28 
 29 30 31 33 35 36 37 38 39 40 42 43 
 47 48 50 51 52 54 56 57 58 59 60 61 
 62 63 65 66 67 68 69 71 72 73 74 75 
 76 78 79 80 81 83 84 85 87 88 89 90 
 91 92 93 
 73 
 1 2 3 4 5 6 8 9 10 11 12 13 
 14 16 17 18 19 20 21 22 23 24 25 26 
 27 28 29 30 31 32 33 34 36 37 39 40 
 41 42 43 45 46 47 48 49 50 52 53 54 
 55 56 57 58 63 64 65 66 67 68 69 73 
 76 78 79 80 83 85 86 87 88 89 90 92 
 93 
 18 
 6 8 12 14 22 28 31 48 51 52 53 54 
 59 60 74 81 88 93 
 66 
 1 2 4 5 6 7 9 10 11 12 13 14 
 16 17 18 19 21 23 24 25 26 27 28 29 
 30 31 32 34 35 36 37 38 40 41 42 44 
 45 47 48 50 51 55 56 58 59 61 62 63 
 64 65 67 68 69 70 74 76 77 78 79 82 
 83 84 87 89 90 91 
 25 
 1 3 9 11 15 18 20 22 25 26 35 37 
 42 44 56 59 60 62 63 64 71 82 83 89 
 93 
 43 
 2 3 4 5 8 9 10 18 21 22 23 25 
 26 28 29 30 31 33 35 38 40 41 42 43 
 45 47 49 50 52 55 62 64 66 69 70 72 
 73 76 77 82 89 92 93 
 22 
 2 4 8 14 29 30 31 42 43 53 59 64 
 65 66 69 84 86 87 88 91 92 93 
 31 
 4 5 8 9 16 17 19 24 26 27 31 34 
 39 41 42 50 51 52 57 62 63 69 72 79 
 84 85 86 89 90 91 93 
 81 
 1 3 4 5 6 8 9 10 11 12 13 14 
 15 16 17 18 19 20 21 22 23 24 25 26 
 27 28 30 32 34 35 36 37 38 39 40 42 
 43 44 45 46 48 49 50 51 52 53 54 55 
 56 57 58 59 60 61 62 63 64 65 66 67 
 68 69 73 74 75 76 77 78 79 81 82 83 
 84 85 86 87 89 90 91 92 93 
 63 
 1 2 3 6 7 8 10 11 12 14 17 19 
 23 24 27 31 32 33 35 36 39 40 41 42 
 43 45 46 47 48 49 50 51 53 54 55 57 
 58 59 60 62 63 65 66 67 69 73 74 75 
 77 78 79 80 81 82 83 85 86 88 89 90 
 91 92 93 
 52 
 1 2 3 5 6 8 9 13 15 17 18 19 
 20 21 22 23 24 27 32 33 34 35 36 38 
 39 41 45 46 48 50 51 55 57 59 60 61 
 64 67 68 70 71 72 73 75 76 79 84 85 
 87 89 90 92 
 46 
 3 5 7 9 10 12 14 17 18 19 23 24 
 25 28 29 31 33 35 36 37 38 39 42 46 
 49 51 53 55 58 59 60 61 62 63 69 72 
 77 78 80 81 84 87 88 89 90 92 
 93 
 1 2 3 4 5 6 7 8 9 10 11 12 
 13 14 15 16 17 18 19 20 21 22 23 24 
 25 26 27 28 29 30 31 32 33 34 35 36 
 37 38 39 40 41 42 43 44 45 46 47 48 
 49 50 51 52 53 54 55 56 57 58 59 60 
 61 62 63 64 65 66 67 68 69 70 71 72 
 73 74 75 76 77 78 79 80 81 82 83 84 
 85 86 87 88 89 90 91 92 93 
 71 
 1 2 3 4 5 6 7 8 9 10 11 12 
 16 18 19 21 22 23 24 26 27 29 30 31 
 33 34 36 37 38 39 41 42 43 44 45 47 
 48 49 50 51 52 53 55 57 58 59 61 62 
 63 65 66 67 68 69 70 71 72 73 76 77 
 78 80 81 82 83 85 87 88 90 91 92 
 48 
 1 3 4 5 11 13 14 15 18 19 21 25 
 27 28 31 32 33 38 39 40 41 42 43 45 
 51 55 56 58 60 63 64 67 70 72 74 75 
 76 77 78 80 81 82 84 86 87 90 91 92 
 91 
 1 2 3 4 5 6 7 8 9 10 12 13 
 14 15 16 17 18 19 20 22 23 24 25 26 
 27 28 29 30 31 32 33 34 35 36 37 38 
 39 40 41 42 43 44 45 46 47 48 49 50 
 51 52 53 54 55 56 57 58 59 60 61 62 
 63 64 65 66 67 68 69 70 71 72 73 74 
 75 76 77 78 79 80 81 82 83 84 85 86 
 87 88 89 90 91 92 93 
 36 
 1 2 6 7 8 12 15 17 21 24 27 29 
 30 32 33 35 39 41 42 43 44 46 49 52 
 56 57 58 60 64 73 80 81 84 87 89 93 
 53 
 2 3 5 6 7 8 9 10 11 13 14 16 
 17 20 21 25 26 27 28 29 31 32 34 39 
 43 48 49 51 54 55 56 57 58 60 61 62 
 63 64 65 67 68 69 71 74 77 78 79 81 
 82 84 88 90 93 
 45 
 2 4 6 9 10 11 15 18 20 23 24 27 
 32 33 39 42 43 44 45 46 48 50 51 54 
 57 60 61 63 64 65 66 67 72 73 74 77 
 79 80 81 84 87 88 90 91 92 
 15 
 1 3 10 18 23 31 38 43 50 61 65 75 
 78 80 86 
 11 
 6 8 9 29 42 45 63 67 73 74 87 
 44 
 4 5 6 8 11 12 17 19 20 22 25 29 
 30 31 35 37 39 40 41 42 45 49 54 56 
 58 59 65 66 67 68 69 71 74 77 79 80 
 81 85 87 88 89 90 92 93 
 23 
 3 4 11 12 16 18 21 24 38 40 42 48 
 55 59 60 61 66 72 87 88 90 92 93 
 43 
 2 3 5 6 7 8 11 12 14 16 17 18 
 19 21 22 23 24 27 30 33 34 35 36 38 
 39 40 44 45 47 48 50 51 52 54 56 58 
 60 63 67 68 71 82 89 
 63 
 1 2 3 5 6 7 8 11 12 13 15 19 
 22 24 25 28 29 33 34 35 38 39 40 41 
 42 43 44 45 46 47 48 49 50 51 52 54 
 55 56 57 59 61 62 63 64 65 69 71 72 
 76 77 79 80 81 82 83 85 86 88 89 90 
 91 92 93 
 20 
 3 4 8 11 12 28 31 32 33 36 42 46 
 49 61 67 68 73 82 84 88 
 58 
 1 2 3 4 6 7 9 10 11 13 15 17 
 20 21 23 24 27 28 29 31 32 36 37 39 
 40 41 42 43 45 46 48 51 52 54 55 58 
 59 60 63 65 66 68 70 71 72 73 77 78 
 79 81 82 83 84 85 86 87 90 92 
 77 
 2 3 4 5 7 8 9 10 11 12 13 14 
 15 16 17 18 19 20 22 23 24 25 26 28 
 29 30 31 32 33 34 35 36 37 38 39 40 
 42 44 45 46 47 48 49 50 53 54 58 60 
 61 62 63 64 65 67 68 69 70 71 72 74 
 75 76 77 78 79 80 81 82 84 85 87 88 
 89 90 91 92 93 
 87 
 1 2 3 4 5 6 7 8 9 10 11 12 
 13 14 15 16 17 18 19 20 21 22 23 24 
 25 26 27 28 29 30 31 32 35 36 37 38 
 39 40 41 42 43 44 45 46 47 48 49 50 
 51 52 53 54 55 56 57 58 59 60 61 62 
 63 64 65 66 67 68 69 70 71 72 73 74 
 75 76 77 78 80 81 82 83 84 86 88 89 
 90 92 93 
 77 
 1 2 3 6 7 8 9 10 11 12 13 14 
 15 17 18 19 20 21 23 24 25 26 27 28 
 29 30 31 32 33 35 36 37 38 39 40 42 
 46 47 48 49 50 51 52 53 54 58 59 60 
 61 62 63 64 65 66 67 68 70 71 72 75 
 76 77 78 79 80 81 82 83 84 85 86 88 
 89 90 91 92 93 
 49 
 4 6 7 9 11 16 17 18 20 21 23 24 
 29 33 34 35 37 38 39 41 43 49 51 53 
 54 56 57 58 60 61 62 63 64 65 66 74 
 75 76 78 79 80 81 82 84 85 86 88 89 
 92 
 46 
 1 4 6 9 13 14 15 19 20 21 22 24 
 25 26 27 29 32 35 36 40 41 42 44 48 
 49 50 51 55 60 62 63 64 65 69 70 71 
 72 73 76 79 82 83 84 86 90 93 
 88 
 1 2 3 4 5 6 7 8 9 10 11 12 
 13 14 15 16 17 18 19 20 21 22 23 24 
 25 26 27 28 29 30 31 33 34 35 36 37 
 38 39 40 41 42 43 44 45 46 47 48 49 
 50 51 52 53 54 55 56 57 58 59 60 61 
 63 64 65 66 67 68 70 71 72 73 74 75 
 76 77 78 79 80 81 82 83 85 86 87 88 
 89 91 92 93 
 43 
 13 15 17 19 20 21 23 25 26 27 30 31 
 33 34 35 37 38 39 42 44 45 47 51 54 
 55 61 63 65 66 67 69 71 72 73 74 77 
 79 80 86 87 88 90 93 
 64 
 1 5 6 10 13 14 15 16 17 19 20 21 
 23 25 27 29 30 31 34 35 36 37 38 39 
 41 42 43 44 46 49 50 51 52 56 57 58 
 59 60 61 63 64 66 67 68 69 70 73 74 
 75 76 77 78 80 81 83 84 85 86 87 88 
 89 91 92 93 
 58 
 1 2 3 4 5 6 7 9 10 11 13 14 
 15 16 18 19 20 21 24 27 29 30 31 32 
 34 36 37 38 41 42 44 48 51 52 55 56 
 57 58 60 61 65 68 70 71 73 74 75 77 
 78 79 81 82 83 89 90 91 92 93 
 23 
 1 6 19 22 24 26 27 28 31 41 51 52 
 54 56 60 64 69 70 71 84 85 90 92 
 48 
 1 3 7 9 11 12 15 16 19 20 22 27 
 28 30 32 33 34 35 36 38 42 47 48 51 
 53 54 56 58 59 60 62 63 64 66 67 68 
 70 75 76 78 79 80 82 83 85 86 89 91 
 71 
 1 2 3 4 6 7 8 9 10 11 12 14 
 15 16 17 18 19 20 21 22 25 28 29 30 
 31 32 33 34 35 36 37 38 40 41 43 45 
 46 48 49 52 53 54 55 56 58 59 60 61 
 62 63 64 65 66 67 68 69 70 72 73 75 
 76 77 78 79 81 84 85 86 88 89 91 
 49 
 1 4 6 7 11 12 14 15 17 18 20 21 
 26 30 31 32 34 36 37 41 42 43 44 46 
 47 48 49 50 51 53 54 55 59 61 62 66 
 67 68 70 71 72 76 77 82 85 86 87 88 
 89 
 25 
 2 3 6 11 14 17 20 24 25 30 44 45 
 47 48 51 53 61 66 69 71 78 80 81 82 
 87 
 85 
 1 2 3 4 5 6 7 8 9 10 11 12 
 13 14 15 16 17 18 19 21 22 23 24 26 
 27 28 29 30 31 32 33 34 35 36 37 38 
 39 41 42 43 46 47 48 49 50 51 52 53 
 54 55 56 57 58 59 60 62 64 65 66 67 
 69 70 71 72 73 74 75 76 77 78 79 80 
 81 82 83 84 85 86 87 88 89 90 91 92 
 93 
 58 
 3 5 6 7 8 9 10 11 12 13 14 15 
 16 18 19 21 22 25 27 28 29 32 34 35 
 36 37 38 39 41 43 44 46 47 48 49 51 
 52 57 59 60 64 65 66 67 69 72 73 74 
 76 77 78 79 80 81 87 90 92 93 
 39 
 1 3 5 6 12 14 15 18 19 24 25 27 
 30 32 33 34 35 37 38 45 48 52 54 58 
 60 61 63 64 71 73 74 75 76 77 80 82 
 89 91 92 
 53 
 2 3 4 5 7 11 12 16 17 19 20 22 
 23 25 26 27 28 30 33 35 36 37 39 42 
 43 45 46 47 48 51 56 57 58 61 62 63 
 64 66 67 70 71 72 73 74 76 77 79 81 
 83 87 88 90 91 
 85 
 1 2 4 5 6 7 8 9 10 11 12 13 
 14 15 16 17 18 19 20 21 22 23 24 25 
 26 27 28 29 30 31 32 33 34 35 37 39 
 40 41 42 43 45 46 47 48 49 50 51 52 
 53 54 55 56 57 58 59 60 61 62 63 64 
 65 66 67 68 70 71 72 73 74 76 77 78 
 80 81 82 83 84 85 86 87 88 89 91 92 
 93 
 37 
 2 7 15 16 20 22 27 30 32 33 34 41 
 42 49 51 52 53 54 59 60 61 62 64 67 
 69 72 76 77 78 79 81 82 83 87 88 89 
 92 
 89 
 1 2 4 5 6 7 8 9 10 11 12 13 
 14 15 16 17 18 19 20 21 22 23 24 25 
 26 27 28 29 30 31 32 33 34 35 36 37 
 38 39 40 41 42 43 44 45 46 47 48 49 
 50 51 52 53 54 55 56 57 58 59 60 61 
 62 63 64 65 66 67 68 69 70 71 72 74 
 75 77 78 79 80 81 83 84 85 86 87 88 
 89 90 91 92 93 
 20 
 1 6 7 18 22 28 29 32 45 47 49 50 
 51 58 59 61 62 64 69 82 
 77 
 1 2 4 5 7 8 9 10 11 12 14 15 
 17 18 19 20 21 22 23 25 27 28 29 30 
 31 32 33 34 35 36 37 38 39 41 42 43 
 44 46 47 48 49 50 51 52 53 54 55 56 
 57 59 62 63 64 65 66 67 68 69 70 71 
 72 73 74 75 78 79 80 82 85 86 87 88 
 89 90 91 92 93 
 60 
 1 2 3 6 8 9 13 14 15 16 17 18 
 21 23 24 25 26 28 30 31 32 33 34 37 
 38 39 40 41 43 45 46 48 49 50 51 54 
 58 59 60 61 62 64 65 66 68 70 71 74 
 75 76 78 79 81 83 84 85 86 88 89 91 
 84 
 1 2 3 4 5 6 7 8 9 10 11 12 
 14 15 17 18 19 20 21 22 23 24 25 26 
 28 29 30 31 32 34 35 36 38 39 41 42 
 43 44 45 46 47 48 49 50 51 52 53 54 
 55 56 57 58 59 60 61 62 63 64 65 66 
 67 68 69 70 71 72 73 74 75 76 77 79 
 80 81 82 83 84 85 87 88 89 90 91 93 
 82 
 1 2 3 5 6 7 8 10 11 12 13 14 
 15 16 17 18 19 20 21 22 23 24 25 26 
 28 29 30 31 32 33 34 35 36 37 38 39 
 40 41 42 43 44 45 46 47 48 49 50 51 
 53 57 58 60 61 62 63 64 65 66 67 69 
 70 71 72 73 74 75 76 77 78 79 80 81 
 83 84 85 86 87 88 89 90 91 93 
 